true false true
presolving:
presolving (0 rounds: 0 fast, 0 medium, 0 exhaustive):
 0 deleted vars, 0 deleted constraints, 0 added constraints, 0 tightened bounds, 0 added holes, 0 changed sides, 0 changed coefficients
 0 implications, 0 cliques
presolved problem has 80 variables (80 bin, 0 int, 0 impl, 0 cont) and 71 constraints
     71 constraints of type <linear>
transformed objective value is always integral (scale: 1)
Presolving Time: 0.00

 time | node  | left  |LP iter|LP it/n|mem/heur|mdpt |vars |cons |rows |cuts |sepa|confs|strbr|  dualbound   | primalbound  |  gap   | compl. 
p 0.0s|     1 |     0 |     0 |     - |shiftand|   0 |  80 |  71 |  71 |   0 |  0 |   0 |   0 |      --      | 9.000000e+00 |    Inf | unknown
 time | node  | left  |LP iter|LP it/n|mem/heur|mdpt |vars |cons |rows |cuts |sepa|confs|strbr|  dualbound   | primalbound  |  gap   | compl. 
  0.5s|     1 |     0 |    25 |     - |  1990k |   0 | 391 |  71 |  71 |   0 |  0 |   0 |   0 | 1.000000e+00 | 9.000000e+00 | 800.00%| unknown
slurmstepd-htc-cmp437: error: *** JOB 16657005 ON htc-cmp437 CANCELLED AT 2024-01-27T20:32:31 DUE TO TIME LIMIT ***
